NAME: PointSet_Angle_15_4
TYPE: TSP
COMMENT: Points chosen discrete uniformly at random out of ${0, \ldots, 500}^2$.
DIMENSION: 15
EDGE_WEIGHT_TYPE: EUC_2D
NODE_COORD_SECTION
1 152 69
2 495 69
3 397 190
4 13 263
5 479 332
6 420 155
7 11 84
8 295 207
9 155 461
10 285 378
11 174 48
12 407 423
13 257 146
14 481 89
15 248 255
EOF
